5288
1500000
998321
998321
998321
998321
998321
998321
998321
998321
998321
998321
998321
998321
998321
998321
998321
998321
987111
987111
987111
987111
987111
987111
984381
984381
984381
984381
984381
984381
984381
984381
984381
984381
984381
984381
984381
984381
984335
984335
984335
984335
984335
984335
984335
984335
984335
984335
984335
984335
984335
984335
984335
984335
984335
984238
984238
984238
984238
984238
984238
979997
977673
977673
977673
977673
977673
977673
977673
977673
977673
977673
977673
977673
977211
977211
977211
977211
977211
975749
975749
975749
975749
975749
975749
975749
975749
975749
975749
975749
975749
975749
975749
975749
975749
975749
975749
973117
973117
973117
973117
973117
973117
973117
973117
973117
973117
973117
973117
973117
973117
973117
973117
973117
973117
973117
972061
972061
972061
972061
972061
972061
972061
970849
970849
970849
970849
970849
970849
970849
970849
970849
970849
970849
970849
970849
970705
970705
970705
970705
970705
970705
969143
969143
969143
969143
969143
969143
969143
969143
969143
969143
969143
969143
969143
967099
967099
967099
967099
967099
967099
967099
967099
967099
967099
967099
967099
967099
967099
965107
965107
965107
965107
965107
965107
965107
965107
965107
965107
965107
965107
965107
965107
965107
964641
964641
964641
964641
964641
964641
964641
964641
964641
964641
964641
964641
964641
964641
964641
964641
964641
964641
964641
964040
964040
964040
964040
964040
964040
964040
964040
964040
964040
964040
964040
964040
964040
964040
964040
964040
964040
964040
964040
961642
961642
961642
961642
961642
961642
961642
961642
961642
961642
961642
961642
961642
961642
961642
961642
961635
961635
961635
961635
961635
961635
961635
961635
961635
961635
961635
961635
961635
961635
961635
961635
961635
959225
959225
959225
959225
959225
959225
959225
959225
959225
957026
957026
957026
957026
957026
957026
957026
957026
957026
957026
957026
957026
957026
957026
956977
956977
956977
956048
956048
956048
956048
956048
956048
956048
956048
956048
956048
956048
956048
956048
954861
954861
954861
954861
954861
954861
954861
954861
954861
954818
954818
954818
954818
952585
952585
952585
947504
947504
947504
947504
947504
947504
947504
947504
947504
947504
947504
947504
947504
947504
947504
947504
942714
942714
942714
942714
942714
942714
942714
942714
942714
942714
942714
942714
942714
942714
942714
942714
940941
940941
940941
940941
940941
940941
940941
940941
940941
940941
940941
940941
933018
933018
933018
933018
933018
933018
933018
933018
933018
933018
933018
933018
933018
933018
932574
932574
932574
932574
932574
932574
932574
932574
932574
932574
932574
932574
932574
932574
932574
932574
932574
932574
932574
926902
926902
926902
926902
926902
926881
926881
926881
926881
926881
926881
926881
926881
926881
926881
926881
926881
926881
925305
924132
924132
923485
923485
923485
923485
923485
923485
923485
923485
923485
923485
923485
923485
923485
923485
923485
923485
923485
923485
923485
923102
923102
923102
923102
923102
923102
923102
923102
923102
919519
919519
919519
919519
919519
919519
919519
919519
919519
919519
919519
919519
919519
919519
919519
919519
918954
918954
918617
918617
918617
918617
918617
918617
915435
915435
915435
914060
914060
914060
912015
912015
912015
912015
912015
912015
909942
909942
909942
909942
909942
909942
909942
909942
909942
909942
909942
909942
909942
909942
909942
909942
909942
909942
906945
906945
906945
906945
906945
906945
906945
906945
906945
906945
906945
906945
906945
906786
906786
906786
906786
906786
906786
906786
906786
906786
906786
906786
906786
906786
906786
906786
906786
906786
906786
906786
906683
906683
906683
906683
904131
904131
904131
904131
904131
904131
904131
904131
904131
904131
904131
904131
904131
904019
901705
901705
901705
901705
901705
901705
901705
901705
901705
901705
901705
901705
901705
901705
901705
901705
901008
901008
901008
901008
901008
901008
901008
901008
901008
901008
901008
901008
901008
899114
899114
899114
899114
899114
899114
899114
897938
897938
897938
897938
897938
897938
897938
897938
897938
897938
897938
897938
897938
893107
893107
892173
892173
892173
892173
892173
892173
892173
892173
892173
889029
889029
889029
889029
889029
889029
889029
889029
889029
889029
889029
889029
889029
889029
889029
889029
889029
889029
889029
889029
886203
886203
886203
886203
886203
886203
886203
886203
886203
886203
886203
886203
886203
886203
886203
886203
886203
886203
886203
886203
886094
886094
886094
886094
886094
886094
886094
886094
886094
886094
886094
886094
886094
886094
886094
886094
886094
886094
884473
884473
884473
884473
884473
884473
884473
884473
884473
884473
884473
884473
884473
884473
884473
881033
881033
881033
881033
881033
881033
881033
881033
881033
881033
881033
881033
880804
880804
880804
880804
880804
880804
880804
880804
880804
880804
880804
880804
879992
879992
879992
879992
879992
879992
879992
879992
879992
879992
879992
876626
876626
876626
876626
876626
876626
876626
876626
876626
876626
876626
876626
876626
876626
876626
876626
876626
873954
873954
873954
873954
873954
873954
873954
873954
873954
873954
873954
873954
873954
873954
873954
872988
872988
872988
872988
872988
872988
872988
872111
872111
872111
871670
871670
871670
871670
871670
871670
871670
871670
871670
871670
871560
871560
871560
871560
871560
871560
871560
871560
871560
871560
871560
871560
871560
871560
871560
871560
871560
871560
871560
867593
867593
867593
867593
867593
867593
867593
867593
867593
867593
867593
867593
867593
867593
867593
867593
867593
867593
865186
865186
865186
865186
865186
865186
865186
865186
865186
865186
865186
865186
865186
865186
865186
865186
865186
865186
864971
864971
864971
864971
864971
864971
864971
864971
864971
864971
864971
864971
864971
864971
864971
864971
864971
864971
864971
862023
862023
862023
862023
862023
862023
862023
862023
862023
861178
861178
861178
861178
861178
861178
861178
861178
861178
861178
861178
861178
861178
861178
861178
857645
857645
857645
857645
857645
857645
857645
857645
857645
857645
857335
857335
857335
857125
857125
857125
857125
857125
857125
857125
857125
857125
857125
857125
857125
857125
857125
857125
857125
857125
857125
856118
856118
856118
856118
856118
856118
856118
856118
856118
856118
856118
856118
856118
856118
856118
856118
854827
854827
854827
854827
854827
854827
854827
854827
854827
854827
854445
854445
854445
854445
854445
854445
854445
854445
854445
854445
854445
854445
854445
854445
854445
854445
854445
854445
854445
854445
853343
853343
853343
853343
853343
853343
853343
853343
853343
853343
853343
853343
853343
853343
853343
852220
852220
852220
852220
852220
852220
852220
850560
850560
850560
850560
850560
850560
850560
850560
850560
850560
850560
849398
849398
849398
849398
849398
849398
849398
849398
849398
849398
849398
849398
849398
849398
849398
849398
849398
849398
845693
845693
845693
845693
845693
845693
845693
845693
845693
845693
845693
845693
845693
845693
845693
845693
845693
845693
845693
836301
836301
836301
836301
836301
836301
836301
836301
836301
836301
836301
836301
836301
836301
836301
836301
836301
836301
835752
835752
835752
835752
835040
835040
835040
835040
835040
835040
835040
835040
835040
835040
835040
835040
835040
835040
835040
835040
835040
834754
831042
831014
831014
831014
831014
831014
831014
831014
831014
828015
828015
828015
828015
828015
828015
828015
828015
828015
828015
828015
828015
828015
824886
824886
824886
824886
824886
824425
824425
824425
824425
824425
824425
824425
824425
824425
824425
823994
823994
823994
823994
823994
823994
823994
823994
823994
823994
823994
823994
823994
823994
823994
823994
823994
823994
823994
823994
823188
823188
823188
823188
823188
823188
823188
823188
823188
823188
823188
823188
823188
823188
823188
816080
816080
816080
816080
816080
816080
816080
816080
816080
816080
816080
816080
816080
816080
816080
815105
815105
815105
815105
815105
815105
815105
815105
815105
815105
815105
815105
815105
812766
812766
812766
812766
812766
812766
812766
812766
812766
812766
812766
812766
812766
812766
809504
809504
808466
808466
808466
808466
803521
799095
799095
799095
799095
799095
799095
799095
799095
799095
799095
799095
799095
799095
799095
799095
799095
795931
795931
795931
795931
795931
795931
795931
795931
795931
795931
795931
795931
795931
794986
794863
794863
794863
794863
794863
794863
794863
794863
794863
794863
794863
794863
794863
794086
794086
794086
794086
794086
794086
794086
794086
794086
794086
794086
794086
794086
794086
794086
794086
794086
794086
794086
794086
793183
793183
793183
793183
793183
793183
793183
793183
793183
793173
793173
793173
792996
792996
792996
792996
792996
792996
792996
792996
792996
792996
792996
792996
790033
790033
790033
789522
789522
789522
789522
789522
789522
789522
789522
789522
789522
789522
789522
789522
789522
789522
789522
789522
789522
788439
788439
788439
788439
788439
788439
779175
775517
775517
775517
775517
775517
775517
775517
775517
774246
774246
774246
774246
774246
774246
774246
774246
774246
774246
774246
774246
774246
773626
773626
773626
773626
773626
773626
773626
773626
773626
773626
773626
773626
773626
773626
773626
773626
773626
773626
773626
773626
767044
766927
766927
766927
766927
766927
766927
766927
766927
766927
766927
766927
766927
766927
766927
766927
762822
762822
762822
760706
760706
760706
760706
760706
760706
760706
760706
760706
760706
760706
760706
760706
760706
760706
760706
760706
760706
760706
760252
760252
760252
760252
760252
760252
760252
760252
760252
760252
760252
760252
760252
760252
760252
760252
760252
760252
757356
757356
757356
757356
757356
757356
757356
757356
757356
757356
757356
757356
757356
757356
757356
757356
757356
757356
757356
754035
754035
754035
754035
754035
754035
754035
754035
754035
753602
753602
753602
753602
753602
753602
753602
750525
750525
750525
750525
750525
750525
750525
750525
750525
750525
750525
750525
750525
750160
750160
750160
750160
750160
749236
749236
749236
748365
748365
748365
748365
748365
748365
748176
748176
748176
748176
748176
748176
748139
748139
748139
748139
748139
748139
748139
748139
748139
748139
744621
744621
744621
744621
744621
744621
744621
744621
744621
744621
744621
744621
743736
743736
743736
743736
743736
743736
743736
743736
743736
743736
743736
743736
743736
743736
741393
741393
741393
741393
738641
738641
738641
738641
738641
738641
738641
738641
738641
738641
738641
738641
738641
738641
738277
738277
738277
738277
738277
738277
738277
738277
737699
737699
737699
737699
737699
737699
737699
737699
737699
730938
730938
730938
730938
730938
730938
730938
730938
730938
730938
730938
730938
730938
730938
730938
730938
730938
730938
730938
730938
729633
729633
729633
729633
729633
729633
729633
729633
729633
728878
728878
728878
725712
725712
725712
725712
725712
725712
725712
725712
725712
725712
725712
725712
725712
725712
725712
725712
724914
724914
724914
724914
724914
724914
724914
724914
724914
724914
724677
724677
724677
724677
724677
724677
724677
724677
724677
724677
724677
724677
724677
724677
724677
724677
723908
723908
723908
723908
723908
723908
723908
723908
723908
723908
723908
723908
723908
723908
723908
723908
723908
723908
720038
720038
720038
720038
720038
720038
720038
720038
720038
720038
720038
720038
720038
720038
720038
720038
720038
719780
719780
719780
719780
719780
719780
719780
719780
719780
719780
719780
719780
719780
719780
719780
719780
719780
719780
719780
714547
714547
714547
714547
714547
714547
714547
714547
714547
714547
714547
714547
714547
714547
714547
711079
711079
711079
711079
711079
711079
711079
711079
711079
711079
711079
711079
711079
711079
711079
710595
710595
710595
710595
710595
710595
710595
708560
708560
708560
708560
708560
708560
708560
708560
708560
705913
705913
705913
705913
705913
705913
705913
705913
705913
705913
705913
705913
704690
704690
704690
704690
704690
704690
704690
704690
704690
704690
704690
704690
704690
704690
704690
704690
704690
704690
704690
704690
700185
700185
700185
700185
700185
699993
699993
699993
699993
699993
699993
699993
699993
699993
699993
699993
699993
699993
699993
699993
699993
699993
699822
699822
699822
699822
699822
699822
699822
693770
693770
693770
693770
693770
691948
691948
691948
691948
691948
691948
691948
691948
691948
691948
691948
690152
690152
690152
690152
690152
690152
690152
690152
688560
688560
688560
688560
688560
688560
688560
688560
688560
688560
688560
688560
688560
688560
688560
688560
688560
688560
688560
688451
688451
688451
688451
688451
688451
688451
688451
688451
687445
687445
687445
687445
687445
680872
680872
680872
680115
676256
676256
676256
676256
676256
676256
676256
676256
676256
676256
676256
676256
676256
676256
675992
675992
675992
675992
675992
675992
675992
675992
675992
675992
675992
674265
674265
674265
674265
674265
674265
674265
674265
674265
674265
674265
667273
667273
667273
667273
667273
667273
667273
667273
667273
667273
662221
662019
662019
662019
662019
662019
662019
662019
662019
662019
662019
662019
662019
662019
662019
662019
662019
661349
661349
661349
661349
661349
661349
661349
661290
661290
660150
660150
660150
658938
658938
658938
658938
658753
658753
658753
658753
658753
658753
658753
658753
657206
657206
657206
657206
657206
657206
657206
657206
657206
657141
657141
657141
657141
657141
657141
657141
657141
657141
654817
654817
654817
654817
652746
652746
652746
652746
652746
652746
652746
652746
652746
652746
652746
652746
652746
652746
652746
652746
652746
652746
652746
650569
650569
650569
650569
650569
650569
650569
650569
650569
650569
650569
650569
650569
645262
645262
645262
645262
645262
645262
645262
645262
645262
645262
645262
645048
645048
645048
642062
640744
640744
640744
640744
640744
640744
640744
638262
638262
638262
638262
638262
638262
638262
638262
637884
637884
637884
637884
637884
637884
637884
636372
636372
633870
633870
633870
633870
633870
633870
633870
633870
633870
633870
633870
633870
633870
633870
633870
633201
633201
633201
633201
633201
633201
633201
633201
630961
630961
630961
630961
630961
630961
630961
630961
630961
630961
630961
630961
630961
630961
630961
630961
630961
630961
630274
630274
630274
630274
630274
629716
629716
629716
629716
629716
629716
629716
629716
629716
629716
629716
629716
629716
629716
629716
629716
629716
629303
629303
629303
629303
629303
629303
629303
629303
629303
629303
629303
629303
629303
629303
629303
627746
627746
627746
627746
627746
627746
627007
627007
627007
626957
626957
626957
626957
626957
626957
626957
626957
626957
626957
626957
626957
626957
626957
626957
626957
624541
624541
619121
619121
619121
614461
614461
614461
612991
612991
612991
612991
612991
612991
612991
612991
612991
612991
612991
612370
612370
612370
612370
612370
612370
612370
612370
612370
612370
612370
612370
610719
610719
610719
610719
610719
610719
610719
610719
610719
610719
610719
610719
610719
610719
610719
610719
610719
610719
610719
610719
608944
608944
608944
608944
608944
605488
605488
605488
602355
602355
602355
602355
602355
602355
602355
602355
602355
602355
602355
602355
602355
602355
602355
602355
602355
598730
598730
598730
598730
598730
598730
598730
598730
598730
598730
598730
598730
598730
598730
598730
598352
598352
598352
598352
597996
597996
597996
597996
595770
595770
595770
595770
595770
595770
595770
594920
594920
594920
594920
594920
594920
594920
594920
594920
594920
594920
594920
593944
593944
593944
593944
593944
593944
593944
593944
593944
591147
591147
591147
591147
591147
591147
591147
591147
591147
591147
591147
591147
591147
591147
591147
591147
591147
591147
591147
591147
588686
588686
588686
588686
588686
588686
588686
588686
588686
588686
588686
588686
588686
581510
581510
581510
581510
581510
581510
581510
581510
581510
581510
581510
581510
581510
581510
581510
579415
576331
576331
576331
576331
576331
576331
576331
576331
576331
576331
576331
576331
576331
576331
576331
576331
576331
576331
576331
576331
569526
569526
569526
569526
569526
569526
569526
569526
569526
569526
569526
569526
569526
569526
569206
569206
569206
569206
569206
569206
569206
568962
568962
568962
566111
566111
566111
566111
566111
566111
566111
566111
566111
566111
566111
566111
566111
566111
564749
564749
564749
564749
564749
564749
564749
564749
564749
564594
564594
564594
563441
563441
563441
563441
563441
563441
563441
563441
563441
563441
563441
563227
563227
563227
563227
563227
559308
559308
559308
559308
559308
559308
559308
559308
559308
559308
559308
559308
559308
559308
559308
555389
555389
555389
555389
555389
555389
555389
555389
555389
555389
555389
554200
554200
554200
554200
554200
554200
554200
554200
554200
554200
554200
554200
554200
554068
552494
552494
552494
552494
552494
552494
552494
552494
552494
552494
552494
552494
552494
552138
552138
551098
551098
551098
551098
551098
551098
551098
551098
551098
545969
545969
545969
545969
545969
545969
545969
545969
545969
545969
545969
545969
545969
545969
545969
545969
545969
545969
545157
545157
545157
545157
545157
545157
545157
545157
545157
545157
545157
545157
544960
544960
544960
544960
544960
544960
544960
544960
544076
544076
544076
544076
544076
544076
540287
538065
538065
538065
538065
538065
538065
538065
538065
538065
535294
535294
535294
535294
535294
535294
535294
535294
535294
535294
535294
535294
535294
535294
535294
535294
535294
535294
535294
535294
535106
535106
535106
535106
535106
534911
534911
534911
534911
534911
534911
534911
534911
534911
534911
534911
534911
534911
534911
534911
534911
534911
534911
534911
534911
533920
533920
533920
533920
533920
533920
533920
533920
533920
533920
533920
533920
533920
533920
533920
533920
533920
533920
533920
533920
533868
533868
533868
533868
533868
533868
533868
533868
533868
533868
533868
533868
533868
533135
533135
533135
533135
533135
533135
533135
533135
533135
533135
533135
533135
533135
533135
533135
533135
532831
532831
532831
532831
532831
532831
532831
532831
532831
532831
532831
532310
532310
532310
532310
532310
532310
532310
532310
532310
532310
523968
523968
523968
523968
523968
523968
523968
523968
518465
518465
518465
518465
518465
518465
518465
518465
518465
518465
518465
512010
512010
510009
510009
510009
510009
510009
510009
510009
510009
510009
510009
510009
510009
510009
510009
510009
510009
510009
510009
510009
510009
509693
509693
509693
509693
509693
509693
509693
509693
509693
509693
509693
509693
509693
509693
509693
509693
509693
509693
509693
508680
508680
508680
508680
508680
508680
508680
508680
508680
508680
508680
508680
506454
506454
506454
506454
506454
506454
506454
506454
501657
501657
501657
501657
501657
501657
501657
501657
501657
501657
501657
501657
497610
497610
497610
497610
497610
497610
497610
497610
497610
497610
497610
497610
497610
497610
497610
497610
497610
497610
497610
497610
491077
491077
491077
491077
491077
491077
491077
491077
491077
491077
482835
482835
482835
479540
479540
479540
479540
479540
479540
479540
479540
479540
479540
479540
479540
479540
479540
479540
479540
479540
479540
479540
477839
477839
477839
477839
477839
477839
477839
477839
477839
477839
477839
469558
469558
469558
469558
469558
469558
469558
466788
466788
466788
466788
466788
466788
466788
466788
466788
466788
466788
466788
466788
466788
466788
466788
466371
466371
466371
466371
466371
466371
466371
466371
466371
466371
466371
463035
463035
463035
463035
463035
463035
463035
463035
463035
463035
463035
463035
463035
463035
463035
458353
458353
458353
458353
458353
458353
458353
458353
458353
458353
458353
458353
458353
458353
457714
457714
455998
455998
455998
455998
455998
454266
454266
454266
454266
454266
453076
453076
453076
453076
453076
453076
453076
453076
453076
453076
453076
453076
453076
453076
453076
453076
453076
453076
451813
451813
451813
451459
451459
451459
451459
442448
442448
442448
442448
442448
442448
442448
442448
442448
442448
442448
441494
441494
441494
441494
441494
441494
441494
441494
441494
441494
441494
441494
441494
441494
441494
441494
441494
441494
441494
441494
438082
438082
438082
438082
438082
438082
438082
438082
438082
436143
436143
436143
436143
436143
436143
436143
436143
436143
433962
432200
432200
432200
432200
432200
432200
432200
432200
432088
432088
432088
432088
432088
432088
432088
432088
432088
432088
432088
432088
432088
432088
432088
432088
432088
432088
432088
430318
430318
430318
430318
430318
428986
427201
427201
427201
427201
427201
427201
427201
427201
427201
427201
427201
427201
426185
426185
426185
426185
423147
423147
423147
423147
423147
423147
423147
423147
423147
423147
423147
423147
423147
423147
423147
423147
420623
420623
417581
417581
417581
417581
417581
417581
417581
417581
417581
417581
417581
417581
417581
417581
417581
417581
417581
417581
416952
416952
416952
416952
416952
416952
416952
416952
416952
416952
416569
416569
416569
416569
416569
416569
416569
416569
416569
416569
416569
416569
414959
414959
414959
414959
414959
414959
414959
414959
414959
413630
413630
413630
413630
413630
413630
413630
413630
413630
413630
413630
413630
413630
413630
413630
410079
410079
410079
410079
410079
410079
410079
410079
410079
410079
410079
410079
410079
408231
408231
408231
407513
407513
407513
407513
407513
407513
403755
403755
403755
403755
403755
403755
403755
403755
403755
403755
403755
403755
403755
403755
403755
403755
400778
398920
398920
398920
398920
398920
398920
398920
398920
398920
396614
396614
396614
396614
396398
396398
396398
396398
395613
395613
395613
395613
395613
395613
395613
395613
395613
395613
395613
395613
395613
392656
392656
392656
392656
392656
392656
392656
392656
392656
392656
392656
392656
392656
392656
392656
389712
389712
389712
389712
389712
389712
389712
389712
389712
389712
389712
389712
389712
389712
389712
389712
389712
389712
389712
388159
388159
388159
388159
387875
387875
387875
387875
387201
387201
387201
387201
387201
387201
387201
387201
387201
387201
387201
387201
387201
387201
385953
385953
385953
385953
385953
385953
385953
385953
385953
383147
383147
383147
383147
383147
383147
383147
383147
383147
383147
383147
383147
383147
383147
383147
383147
379064
379064
378563
378563
378563
378563
378563
378563
378563
378563
378563
378563
378563
378563
378563
378563
378563
377326
376681
376681
376681
376681
376681
376305
376305
376305
376305
376305
376305
376305
376305
375893
375893
375893
375893
375893
375893
375893
375893
375893
375893
375893
375893
375893
375893
372899
372899
372899
372899
372899
372899
372899
372899
372899
372899
372899
372899
372899
372899
372899
372899
372899
370265
370265
370265
370265
370265
370265
370265
370265
370265
370265
370265
370265
370265
370265
370265
370265
369493
369493
369493
369493
369493
369493
369493
369493
369493
368649
368649
368649
368649
368649
368649
368649
368649
368649
368649
368649
368649
368649
368649
368649
368649
368649
368649
361480
361480
361480
361480
361480
361480
361480
361480
361480
361480
361480
361480
361480
361480
361480
361480
361480
361480
361480
361480
358748
358748
358748
358748
358748
358748
358748
358748
358748
358748
358748
358748
358748
358748
358748
358748
358748
358748
357850
357850
357850
357850
357850
357850
357850
357850
357850
357850
357783
355216
355216
355216
351322
351322
351322
351322
351322
351322
351322
351322
351322
351322
351322
351322
351322
351322
351322
351322
351322
351322
350984
350984
350984
350984
350984
350984
350984
350984
350984
350984
349051
349051
349051
349051
349051
349051
347667
347667
347667
347667
347667
347667
347667
346301
346301
346301
346301
346301
346301
346301
346301
346301
346301
346301
346301
346301
346301
346301
346301
346301
346301
346301
345253
345253
345253
345253
344401
344401
344401
344401
344401
344401
344401
344401
344401
344401
344401
344401
344401
344401
344401
344401
344401
344401
337379
337379
337379
337379
337379
337379
337379
337379
337379
337379
337379
337379
337379
337379
337379
337379
337379
337379
337379
336392
336392
336392
336392
336392
335571
335571
335571
335571
335571
335571
335571
335571
335571
335571
335571
326081
326081
326081
326081
326081
326081
326081
326081
326081
326081
325362
325362
325362
325362
325362
325362
325362
324511
324511
324511
324511
324511
324511
323621
323621
323621
323621
323621
323621
323621
323621
323621
323621
323247
323247
323247
323247
323247
323247
323247
323247
323247
323247
323247
323247
322821
322821
322821
322821
322821
322821
322821
322821
322821
322821
322821
322821
322821
322821
322821
322821
322821
322821
319743
319743
319743
319743
319743
319743
319743
319743
319743
319743
319743
319743
319743
319743
319743
319743
319743
319142
319142
319142
319142
319142
319142
319142
318319
318319
318319
318319
318319
318319
318319
318319
318319
318319
318319
318319
318319
316775
316775
314184
314184
314184
314184
313911
313911
313911
313911
313911
313911
313911
313911
313911
313911
313911
313911
313911
313911
313911
313911
309772
309772
309772
309362
309362
309362
309362
309362
309362
309362
309362
309362
309362
309362
309362
309362
309362
309362
309362
309362
309362
306202
306202
306202
306202
306202
306202
306202
306202
306202
306202
306202
306202
306202
306202
306202
306202
306202
306202
305165
305165
305165
305165
305165
305165
305165
305165
305165
305165
305165
304261
304261
304261
304261
304261
304261
304261
304261
304261
304261
304261
304261
304261
304261
297049
297049
297049
297049
297049
297049
297049
297049
297049
297049
297049
297049
297049
294445
294445
294445
294445
294445
294445
294445
294445
294445
294445
294445
294445
294445
294445
294445
294445
294445
294445
293046
293046
293046
293046
293046
293046
293046
293046
293046
293046
293046
293046
293046
293046
290213
290213
290213
290213
290053
290053
290053
290053
290053
290053
290053
290053
287723
287723
287723
287723
287723
287723
284041
284041
284041
284041
282799
282799
282799
282799
282799
282799
276044
276044
276044
276044
276044
276044
276044
276044
276044
276044
273055
273055
273055
273055
273055
273055
273055
273055
273055
273055
273055
271690
271690
271690
271690
271690
271690
270257
270257
270257
270257
270257
268191
268191
268191
268191
268191
268191
268191
268191
268191
267478
267478
267478
267478
267478
267478
267306
267204
267204
267204
267204
267204
267204
267204
267204
267204
267204
267204
266129
266129
266129
266129
266129
266129
266129
266129
266129
266129
266129
266129
266129
266129
266129
265911
265911
265911
265184
265184
265184
265184
265184
265184
265184
265184
265184
265184
265184
265184
262039
262039
259825
259825
259825
259825
259825
259825
259825
259825
259825
259825
259825
259825
259825
259825
259825
259320
259320
259320
259320
259320
259320
259320
259320
259320
259320
259320
259320
259320
259320
259320
259320
259320
256636
256636
256636
256636
256636
256636
256636
256636
256636
256186
256186
256186
256186
256186
256186
256186
256186
256186
256186
256186
256186
256186
256186
256186
256186
256186
256186
254211
254211
254211
254211
254211
254211
254211
254211
254211
254211
254211
254211
254211
254211
254211
254211
254211
254211
253146
253146
253146
253146
253146
253146
253146
253146
253146
253146
253146
253146
252982
252982
252982
252982
252982
252982
252982
252982
252982
252982
252982
247649
247649
247649
247649
247649
247649
247649
247580
247580
247580
247580
247580
247580
247580
247580
247580
247580
247580
247580
247580
246897
246897
246897
240868
240868
240868
240868
240868
240868
240868
240868
240868
240868
240868
240868
240868
240868
240868
240868
240868
238830
238830
238830
238830
237313
237313
237313
237313
237313
237313
237313
237313
233075
233075
233075
233075
233075
233075
233075
233075
233075
233075
233075
233075
233075
233075
233075
231350
231350
231350
231350
231350
231350
231350
231350
231350
229400
229400
229400
229400
229400
229400
229400
229400
229400
229400
229400
229400
229400
229400
229400
229188
229188
229188
229188
229188
229188
229188
229188
227583
227583
227583
227583
227583
227583
227583
227583
227583
227583
227345
227345
227345
227345
224243
224243
224243
224243
224243
224243
224243
224243
224243
224243
224243
224243
224243
224243
224243
224243
224243
224243
224243
223103
223103
223103
223103
223103
223103
223103
223103
223103
223103
223103
223103
223103
223103
223103
223103
223103
223103
221966
221966
221966
221966
218292
218292
218292
218292
218292
218292
218292
218292
218292
218292
218292
218292
218292
218292
218292
217913
217913
217913
217913
217913
217913
217913
217913
217913
217913
217913
217913
217913
217913
217913
217913
217913
210508
210508
210508
210508
210508
210508
210508
210508
210508
210508
210508
210508
210508
210508
205392
205392
205392
205392
205392
205392
205392
205392
205392
205392
205392
205392
205392
205392
202281
202281
202281
202281
202281
202281
202281
202281
202281
202281
202281
202281
202281
199971
199971
199971
199971
199971
199971
199971
199971
199971
199971
199971
199038
199038
199038
199038
199038
199038
199038
199038
199038
199038
199038
199038
199038
199038
193750
193750
193750
193750
193750
193750
193750
193750
193750
193750
193750
193750
193750
193750
193750
193750
193750
192131
192131
192131
192131
192131
192131
192131
192131
192131
192131
192131
192131
192131
192131
192131
192131
192131
183892
183892
183892
183892
183892
183892
183892
183892
183892
183892
183892
183892
183892
183892
183892
183892
183892
183892
183892
183892
181575
180438
180438
180254
180254
180254
180254
180254
180254
180254
180254
180254
180254
180254
180254
180254
180254
180254
180254
177271
177271
177271
177271
177271
177271
177271
177271
177271
177271
177271
177271
177271
177271
177271
177271
177271
177271
176077
176077
176077
176077
176077
176077
176077
176077
176077
176077
176077
176077
176077
176077
176077
176077
176077
176077
176077
174608
174608
174608
174608
173466
173466
173466
173466
173466
173466
173466
173466
173466
173466
173466
173466
173466
173466
169939
169939
169939
169939
169939
169939
169939
169939
169939
169939
169939
169939
169939
169939
169939
169939
168977
168977
168977
168977
168977
168977
168977
168977
168977
168977
168977
168977
168977
168977
161994
161994
161994
161994
161994
161994
161994
161994
160159
160159
160159
160159
160159
160159
160159
160159
160159
159676
159676
159676
159676
159676
159676
159676
159676
159676
159676
159676
159676
159676
159676
159676
159011
159011
159011
159011
159011
159011
159011
159011
159011
159011
159011
159011
159011
159011
159011
159011
159011
159011
159011
159011
157803
157803
157803
155643
155643
155643
155643
155643
155643
155643
154995
154995
154995
154995
154995
154995
154995
154995
154995
154995
154995
154995
154995
154995
154995
154159
154159
154159
154159
154159
154159
154159
154159
154159
154159
154159
154159
154159
154159
154159
154159
154159
153442
153442
153442
153442
153442
153442
153442
153442
153442
153442
153442
152021
152021
152021
152021
152021
152021
152021
152021
152021
152021
151533
149582
149582
149582
149582
149582
149582
149582
149582
149582
149582
149582
145481
145481
145481
145481
145481
145481
145481
145481
145481
145481
145481
145481
145481
145481
145481
143963
143963
143963
143963
143963
143963
143963
143963
143438
143438
143438
143438
143438
143438
143438
143438
143438
143438
143438
143438
143438
143438
143438
143438
143438
143438
143126
143126
143126
143126
143126
143126
143126
143126
143126
143126
143126
143126
143126
143126
143126
143126
143126
143126
142489
142489
142489
142489
142489
142489
142489
142489
142489
142489
142489
142489
142489
142489
142489
142489
142489
142489
141139
141139
141139
140633
140633
140633
140633
140633
140633
140633
140633
140633
140633
140633
140633
140633
140633
137117
137117
137117
137117
137117
137117
137117
137117
136843
136843
136843
136843
136843
136843
136843
136584
136584
135681
135681
131873
131873
131873
131873
131873
131873
131873
131873
131873
131873
131873
131873
131873
130003
130003
130003
130003
130003
130003
129014
129014
129014
129014
129014
129014
123285
123285
123285
123285
123285
123285
123285
118524
118524
118524
118524
115572
115572
115572
115572
115572
115572
115572
115572
115572
115572
115572
112198
112198
112198
112198
112198
112198
112198
112198
110560
110560
110560
110560
110560
110560
110560
110560
110560
110560
110560
110560
110560
109364
109364
109364
109364
109364
109364
109364
108062
106457
106457
106457
106457
106457
106457
106457
106457
106457
106457
106457
106457
106457
106457
103386
103386
103386
103386
103386
103386
103386
103386
103386
103386
103386
103386
103386
102909
102909
102909
102909
102909
102909
102909
102909
102909
102909
102909
102909
102909
102909
102909
102909
102909
102909
102909
102804
102804
98427
98427
98427
98427
98427
98427
97089
97089
97075
97075
97075
97075
97075
97075
97075
97075
97075
97075
97075
97075
97075
97075
97075
97075
97075
97075
97075
95539
93656
93656
93656
93656
91432
91432
91432
91432
91432
91432
91432
91432
91432
91432
91432
91432
91432
91432
91432
91432
91432
88979
88979
88979
88979
88979
88979
88979
88979
88979
88979
88590
88590
88590
88590
88590
88590
83691
83691
83691
83691
83691
83691
83691
83603
83603
83603
83603
83603
83159
83159
83159
83159
83159
83159
83159
83159
83159
80665
80665
80665
80665
80665
80665
80665
80665
80665
80665
80665
80665
80665
80665
80665
80665
79303
79303
79303
79303
79303
79303
79303
79303
79303
79303
79303
79303
79303
79200
79200
79200
79200
79200
79200
79200
79200
79200
79200
79200
79200
79200
79196
79196
79196
79196
79196
79196
79196
79196
79196
79196
79196
79196
79196
79196
76128
76128
76128
76128
76128
76128
76128
76128
76128
76128
76128
76128
76128
76128
76128
76128
76053
76053
76053
76053
76053
76053
76053
76053
76053
76053
76053
76053
76053
76053
76053
76053
76053
76053
76044
76044
76044
76044
76044
76044
75581
75581
75581
75581
75581
75581
75581
75581
75581
75156
75156
75156
75156
75156
75156
75156
75156
75156
75156
75156
75156
75156
75156
75156
75156
75156
75156
75156
74934
69459
69459
69459
69459
69459
69459
69367
69367
69367
69367
69367
69367
69367
69367
69367
69367
67379
67379
67379
67379
67379
67379
67379
67379
67379
67379
67379
67379
67379
67379
67379
67379
67379
67379
67379
67379
67159
66090
66090
65814
65814
65814
65814
65814
65814
65814
65814
65814
65814
65814
65814
65814
65814
65814
65814
65814
65814
65814
65182
65182
65182
65182
65182
65182
65182
64534
64534
64534
64534
64534
64534
64534
64534
64534
64534
64534
64534
64534
61698
61698
61698
61698
61698
61698
61698
61698
61698
61698
61698
60290
60290
60290
60290
60290
60290
60290
60290
60290
60290
60290
60290
60290
60290
60290
60290
60290
60290
60290
58204
58204
58204
58204
58204
58204
58204
58204
58204
58204
58127
58127
54681
54681
54681
54681
54681
54681
54681
54681
54681
54681
54681
54273
54273
54273
54273
54273
54273
54273
54273
54273
54273
54273
54273
54273
54273
54273
54273
54273
54273
54273
54273
52268
52268
52268
52268
52268
52268
52268
52268
52268
52268
52268
52268
52268
52268
48988
48988
48988
48988
48988
48988
47587
47587
47587
47587
47587
47587
47587
47587
47587
47587
46972
46972
46972
46972
45716
45716
45716
45716
45716
45716
45716
45716
45716
45716
45716
45716
45716
45716
45716
45716
45716
45716
45716
45716
44821
44821
44821
44821
44821
44821
44821
44821
44821
44821
44821
44821
44821
44821
44821
44821
44821
38535
38535
38535
38535
38535
38535
38535
38535
38535
38535
38535
38535
38535
38535
38535
38535
38535
38535
38535
38535
38270
38270
38270
38270
38270
38270
38270
38270
38270
33174
33174
33174
33174
33174
33174
33021
33021
33021
33021
33021
33021
33021
32929
32929
32929
32929
32929
28075
28075
28075
28075
28075
28075
28075
28075
28075
28075
28075
28075
28075
28075
28075
27890
27890
27890
27890
27890
27890
27890
27890
24823
24823
24823
24823
24823
24823
24823
23300
23300
23300
23300
23300
23300
23300
23300
23300
23300
23300
23300
23300
23300
23300
23300
20785
20785
20785
20785
17368
15639
15639
15639
15639
15639
15639
15639
14802
14802
14802
14802
14802
14802
14802
14785
14785
14785
14785
14785
14785
14785
14785
14785
14785
14785
14785
14785
14785
14785
14785
14785
14785
14785
14785
14197
14197
14197
14197
14197
14197
14197
14197
14197
14197
14197
14197
14197
14197
14197
14197
14197
14197
12267
12267
12267
12267
12267
12267
12267
12267
12267
12267
12267
12267
12267
12267
11959
11959
11959
11959
11959
11959
11959
11959
11959
11959
11959
11959
11959
11959
11959
11959
11959
